<?xml version = "1.0" encoding="UTF-8" standalone="yes"?>
<CPLEXSolution version="1.2">
 <header
   problemName="0_gamma__E_4_2_2"
   objectiveValue="0"
   solutionTypeValue="1"
   solutionTypeString="basic"
   solutionStatusValue="3"
   solutionStatusString="infeasible"
   solutionMethodString="dual"
   primalFeasible="0"
   dualFeasible="1"
   simplexIterations="4"
   writeLevel="1"/>
 <quality
   epRHS="9.9999999999999995e-07"
   epOpt="9.9999999999999995e-07"
   maxPrimalInfeas="2"
   maxDualInfeas="0"
   maxPrimalResidual="0"
   maxDualResidual="0"
   maxX="1"
   maxPi="0.25"
   maxSlack="2"
   maxRedCost="0"
   kappa="57.352542372881359"/>
 <linearConstraints>
  <constraint name="R_def" index="0" status="LL" slack="0" dual="-0"/>
  <constraint name="val_cible_G" index="1" status="BS" slack="2" dual="0"/>
  <constraint name="BkI_3_0" index="2" status="BS" slack="0" dual="-0"/>
  <constraint name="BkI_3_1" index="3" status="LL" slack="0" dual="-0.25"/>
  <constraint name="BkI_3_2" index="4" status="BS" slack="0" dual="-0"/>
  <constraint name="BkI_3_3" index="5" status="LL" slack="0" dual="0.25"/>
  <constraint name="BkI_5_0" index="6" status="LL" slack="0" dual="0"/>
  <constraint name="BkI_5_1" index="7" status="BS" slack="0" dual="-0"/>
  <constraint name="BkI_5_2" index="8" status="LL" slack="0" dual="-0"/>
  <constraint name="BkI_5_3" index="9" status="BS" slack="0" dual="-0"/>
  <constraint name="BkI_6_0" index="10" status="BS" slack="0" dual="-0"/>
  <constraint name="BkI_6_1" index="11" status="LL" slack="0" dual="-0.25"/>
  <constraint name="BkI_6_2" index="12" status="BS" slack="0" dual="-0"/>
  <constraint name="BkI_6_3" index="13" status="LL" slack="0" dual="0.25"/>
  <constraint name="BkI_9_0" index="14" status="BS" slack="0" dual="-0"/>
  <constraint name="BkI_9_1" index="15" status="LL" slack="0" dual="0.25"/>
  <constraint name="BkI_9_2" index="16" status="BS" slack="0" dual="-0"/>
  <constraint name="BkI_9_3" index="17" status="LL" slack="0" dual="-0.25"/>
  <constraint name="BkI_10_0" index="18" status="BS" slack="0" dual="-0"/>
  <constraint name="BkI_10_1" index="19" status="BS" slack="0" dual="-0"/>
  <constraint name="BkI_10_2" index="20" status="BS" slack="0" dual="-0"/>
  <constraint name="BkI_10_3" index="21" status="BS" slack="0" dual="-0"/>
  <constraint name="BkI_12_0" index="22" status="BS" slack="0" dual="-0"/>
  <constraint name="BkI_12_1" index="23" status="LL" slack="0" dual="-0.25"/>
  <constraint name="BkI_12_2" index="24" status="BS" slack="0" dual="-0"/>
  <constraint name="BkI_12_3" index="25" status="LL" slack="0" dual="0.25"/>
 </linearConstraints>
 <variables>
  <variable name="R" index="0" status="LL" value="1" reducedCost="-0"/>
  <variable name="Q0123" index="1" status="BS" value="0" reducedCost="0"/>
  <variable name="Q0000" index="2" status="LL" value="0" reducedCost="0"/>
  <variable name="P0000" index="3" status="LL" value="0" reducedCost="0"/>
  <variable name="Q0001" index="4" status="LL" value="0" reducedCost="-0"/>
  <variable name="P0001" index="5" status="BS" value="0" reducedCost="0"/>
  <variable name="Q0002" index="6" status="LL" value="0" reducedCost="0"/>
  <variable name="P0002" index="7" status="BS" value="0" reducedCost="0"/>
  <variable name="Q0003" index="8" status="BS" value="0" reducedCost="0"/>
  <variable name="P0003" index="9" status="LL" value="0" reducedCost="-0"/>
  <variable name="Q0010" index="10" status="LL" value="0" reducedCost="-0"/>
  <variable name="P0010" index="11" status="BS" value="0" reducedCost="0"/>
  <variable name="Q0011" index="12" status="LL" value="0" reducedCost="-0"/>
  <variable name="P0011" index="13" status="BS" value="0" reducedCost="0"/>
  <variable name="Q0020" index="14" status="LL" value="0" reducedCost="0"/>
  <variable name="P0020" index="15" status="LL" value="0" reducedCost="0"/>
  <variable name="Q0022" index="16" status="LL" value="0" reducedCost="0"/>
  <variable name="P0022" index="17" status="LL" value="0" reducedCost="0"/>
  <variable name="Q0030" index="18" status="LL" value="0" reducedCost="-0"/>
  <variable name="P0030" index="19" status="LL" value="0" reducedCost="-0"/>
  <variable name="Q0033" index="20" status="BS" value="0" reducedCost="0"/>
  <variable name="P0033" index="21" status="LL" value="0" reducedCost="-0"/>
  <variable name="Q0100" index="22" status="LL" value="0" reducedCost="-0"/>
  <variable name="P0100" index="23" status="LL" value="0" reducedCost="-0"/>
  <variable name="Q0101" index="24" status="BS" value="1" reducedCost="0"/>
  <variable name="P0101" index="25" status="UL" value="1" reducedCost="0"/>
  <variable name="Q0110" index="26" status="LL" value="0" reducedCost="-0"/>
  <variable name="P0110" index="27" status="BS" value="0" reducedCost="0"/>
  <variable name="Q0111" index="28" status="LL" value="0" reducedCost="-0"/>
  <variable name="P0111" index="29" status="LL" value="0" reducedCost="-0"/>
  <variable name="Q0200" index="30" status="LL" value="0" reducedCost="0"/>
  <variable name="P0200" index="31" status="LL" value="0" reducedCost="0"/>
  <variable name="Q0202" index="32" status="LL" value="0" reducedCost="0"/>
  <variable name="P0202" index="33" status="LL" value="0" reducedCost="0"/>
  <variable name="Q0220" index="34" status="LL" value="0" reducedCost="0"/>
  <variable name="P0220" index="35" status="LL" value="0" reducedCost="0"/>
  <variable name="Q0222" index="36" status="LL" value="0" reducedCost="0"/>
  <variable name="P0222" index="37" status="LL" value="0" reducedCost="0"/>
  <variable name="Q0300" index="38" status="LL" value="0" reducedCost="-0"/>
  <variable name="P0300" index="39" status="LL" value="0" reducedCost="-0"/>
  <variable name="Q0303" index="40" status="BS" value="0" reducedCost="0"/>
  <variable name="P0303" index="41" status="BS" value="0" reducedCost="0"/>
  <variable name="Q0330" index="42" status="LL" value="0" reducedCost="-0"/>
  <variable name="P0330" index="43" status="LL" value="0" reducedCost="-0"/>
  <variable name="Q0333" index="44" status="LL" value="0" reducedCost="-0"/>
  <variable name="P0333" index="45" status="LL" value="0" reducedCost="-0"/>
 </variables>
 <objectiveValues>
  <objective index="0" name="" value="0"/>
 </objectiveValues>
</CPLEXSolution>
